0011111110000000
0000000011000000
0000000001100000
0000000001100000
0000000001100000
0000000001100000
0000000001100000
0000000001100000
0000000111100000
0000001101100000
0000011001100000
0000110001100000
0001100001100000
0011000001100000
0000000000000000
0000000000000000